; SPDX-License-Identifier: MPL-2.0
; Copyright (c) 2026 The RIINA Authors.
; Auto-generated from 02_FORMAL/coq/type_system/TypeSafety.v (2 validations)
; Generated by scripts/generate-full-stack.py
;
; Translation Validation for TypeSafety
; Layer 9: Verifies compiler backend preserves formal semantics.
; Each assertion checks source IR ≡ target code for a proven property.

(set-logic QF_LIA)
(set-option :produce-models true)

; IR node representation
(declare-sort IRNode 0)
(declare-sort TargetNode 0)

; stuck: source semantics (matches Coq)
(declare-fun source_stuck () Bool)
(declare-fun target_stuck () Bool)
(assert (= source_stuck target_stuck))

; type_safety: translation preserves property (matches Coq: Theorem)
(declare-fun source_type_safety () Bool)
(declare-fun target_type_safety () Bool)
(assert (= source_type_safety target_type_safety))

; multi_step_safety: translation preserves property (matches Coq: Theorem)
(declare-fun source_multi_step_safety () Bool)
(declare-fun target_multi_step_safety () Bool)
(assert (= source_multi_step_safety target_multi_step_safety))

; Verify all translation validations are satisfiable
(check-sat)
(exit)
